p cnf 430 1488
-191 154 0
-191 46 0
-191 89 0
-191 190 0
-191 50 0
191 -154 -46 -89 -190 -50 0
-192 -111 0
-192 119 0
-192 189 0
-192 -127 0
-192 133 0
192 111 -119 -189 127 -133 0
-193 169 0
-193 115 0
-193 -2 0
-193 -138 0
-193 -4 0
193 -169 -115 2 138 4 0
-194 -123 0
-194 141 0
-194 -149 0
-194 -20 0
-194 56 0
194 123 -141 149 20 -56 0
-195 -159 0
-195 140 0
-195 -65 0
-195 -183 0
-195 -75 0
195 159 -140 65 183 75 0
191 192 193 194 195 0
-196 15 0
-196 177 0
-196 68 0
-196 -129 0
-196 -180 0
196 -15 -177 -68 129 180 0
-197 -79 0
-197 -37 0
-197 -45 0
-197 -127 0
-197 17 0
197 79 37 45 127 -17 0
-198 28 0
-198 147 0
-198 -73 0
-198 -4 0
-198 -94 0
198 -28 -147 73 4 94 0
-199 130 0
-199 182 0
-199 -175 0
-199 112 0
-199 -163 0
199 -130 -182 175 -112 163 0
-200 86 0
-200 -32 0
-200 -163 0
-200 -125 0
-200 23 0
200 -86 32 163 125 -23 0
196 197 198 199 200 0
-201 32 0
-201 -140 0
-201 94 0
-201 -17 0
-201 -125 0
201 -32 140 -94 17 125 0
-202 166 0
-202 129 0
-202 -144 0
-202 -101 0
-202 -79 0
202 -166 -129 144 101 79 0
-203 -111 0
-203 -162 0
-203 -19 0
-203 172 0
-203 4 0
203 111 162 19 -172 -4 0
-204 -24 0
-204 130 0
-204 131 0
-204 65 0
-204 111 0
204 24 -130 -131 -65 -111 0
-205 50 0
-205 -188 0
-205 186 0
-205 -135 0
-205 -41 0
205 -50 188 -186 135 41 0
201 202 203 204 205 0
-206 -117 0
-206 50 0
-206 185 0
-206 -123 0
-206 65 0
206 117 -50 -185 123 -65 0
-207 -25 0
-207 126 0
-207 -23 0
-207 142 0
-207 -169 0
207 25 -126 23 -142 169 0
-208 171 0
-208 -131 0
-208 35 0
-208 124 0
-208 -155 0
208 -171 131 -35 -124 155 0
-209 -113 0
-209 -178 0
-209 -44 0
-209 -87 0
-209 -28 0
209 113 178 44 87 28 0
-210 100 0
-210 -122 0
-210 178 0
-210 182 0
-210 -91 0
210 -100 122 -178 -182 91 0
206 207 208 209 210 0
-211 -123 0
-211 63 0
-211 187 0
-211 -143 0
-211 127 0
211 123 -63 -187 143 -127 0
-212 -149 0
-212 33 0
-212 -13 0
-212 -52 0
-212 167 0
212 149 -33 13 52 -167 0
-213 44 0
-213 -69 0
-213 -25 0
-213 -125 0
-213 -116 0
213 -44 69 25 125 116 0
-214 -87 0
-214 -157 0
-214 -97 0
-214 -98 0
-214 -22 0
214 87 157 97 98 22 0
-215 126 0
-215 89 0
-215 144 0
-215 -120 0
-215 -42 0
215 -126 -89 -144 120 42 0
211 212 213 214 215 0
-216 -44 0
-216 -123 0
-216 100 0
-216 -7 0
-216 -158 0
216 44 123 -100 7 158 0
-217 137 0
-217 -41 0
-217 -131 0
-217 -94 0
-217 68 0
217 -137 41 131 94 -68 0
-218 -112 0
-218 -181 0
-218 162 0
-218 -125 0
-218 -87 0
218 112 181 -162 125 87 0
-219 -184 0
-219 46 0
-219 164 0
-219 155 0
-219 -12 0
219 184 -46 -164 -155 12 0
-220 91 0
-220 -80 0
-220 -54 0
-220 -74 0
-220 43 0
220 -91 80 54 74 -43 0
216 217 218 219 220 0
-221 -74 0
-221 -146 0
-221 153 0
-221 4 0
-221 -176 0
221 74 146 -153 -4 176 0
-222 5 0
-222 129 0
-222 62 0
-222 93 0
-222 -29 0
222 -5 -129 -62 -93 29 0
-223 162 0
-223 133 0
-223 91 0
-223 122 0
-223 -152 0
223 -162 -133 -91 -122 152 0
-224 -8 0
-224 -87 0
-224 22 0
-224 -40 0
-224 174 0
224 8 87 -22 40 -174 0
-225 58 0
-225 -131 0
-225 -178 0
-225 -114 0
-225 54 0
225 -58 131 178 114 -54 0
221 222 223 224 225 0
-226 -176 0
-226 -142 0
-226 125 0
-226 -92 0
-226 112 0
226 176 142 -125 92 -112 0
-227 68 0
-227 -89 0
-227 -23 0
-227 176 0
-227 -149 0
227 -68 89 23 -176 149 0
-228 188 0
-228 -75 0
-228 90 0
-228 -24 0
-228 52 0
228 -188 75 -90 24 -52 0
-229 137 0
-229 44 0
-229 -131 0
-229 162 0
-229 -46 0
229 -137 -44 131 -162 46 0
-230 -20 0
-230 59 0
-230 -156 0
-230 89 0
-230 116 0
230 20 -59 156 -89 -116 0
226 227 228 229 230 0
-231 52 0
-231 -164 0
-231 167 0
-231 -5 0
-231 -124 0
231 -52 164 -167 5 124 0
-232 -5 0
-232 -111 0
-232 -82 0
-232 28 0
-232 68 0
232 5 111 82 -28 -68 0
-233 -67 0
-233 -148 0
-233 -52 0
-233 -159 0
-233 168 0
233 67 148 52 159 -168 0
-234 -67 0
-234 154 0
-234 173 0
-234 36 0
-234 -182 0
234 67 -154 -173 -36 182 0
-235 28 0
-235 30 0
-235 -114 0
-235 -130 0
-235 100 0
235 -28 -30 114 130 -100 0
231 232 233 234 235 0
-236 -26 0
-236 -143 0
-236 62 0
-236 157 0
-236 -51 0
236 26 143 -62 -157 51 0
-237 81 0
-237 65 0
-237 -98 0
-237 157 0
-237 75 0
237 -81 -65 98 -157 -75 0
-238 -21 0
-238 -34 0
-238 58 0
-238 52 0
-238 -110 0
238 21 34 -58 -52 110 0
-239 -184 0
-239 75 0
-239 -27 0
-239 19 0
-239 -103 0
239 184 -75 27 -19 103 0
-240 158 0
-240 181 0
-240 -65 0
-240 37 0
-240 86 0
240 -158 -181 65 -37 -86 0
236 237 238 239 240 0
-241 90 0
-241 170 0
-241 140 0
-241 165 0
-241 152 0
241 -90 -170 -140 -165 -152 0
-242 -52 0
-242 -171 0
-242 26 0
-242 -41 0
-242 30 0
242 52 171 -26 41 -30 0
-243 -123 0
-243 -159 0
-243 -147 0
-243 110 0
-243 17 0
243 123 159 147 -110 -17 0
-244 171 0
-244 118 0
-244 -33 0
-244 156 0
-244 154 0
244 -171 -118 33 -156 -154 0
-245 -41 0
-245 36 0
-245 164 0
-245 -77 0
-245 73 0
245 41 -36 -164 77 -73 0
241 242 243 244 245 0
-246 -106 0
-246 124 0
-246 -55 0
-246 122 0
-246 -118 0
246 106 -124 55 -122 118 0
-247 -152 0
-247 143 0
-247 82 0
-247 -17 0
-247 -142 0
247 152 -143 -82 17 142 0
-248 -19 0
-248 106 0
-248 -50 0
-248 -38 0
-248 -53 0
248 19 -106 50 38 53 0
-249 -63 0
-249 160 0
-249 -56 0
-249 -1 0
-249 79 0
249 63 -160 56 1 -79 0
-250 -101 0
-250 -68 0
-250 110 0
-250 -83 0
-250 188 0
250 101 68 -110 83 -188 0
246 247 248 249 250 0
-251 186 0
-251 83 0
-251 171 0
-251 126 0
-251 -91 0
251 -186 -83 -171 -126 91 0
-252 166 0
-252 -137 0
-252 107 0
-252 -85 0
-252 83 0
252 -166 137 -107 85 -83 0
-253 -47 0
-253 18 0
-253 185 0
-253 -142 0
-253 140 0
253 47 -18 -185 142 -140 0
-254 63 0
-254 -22 0
-254 -138 0
-254 -18 0
-254 37 0
254 -63 22 138 18 -37 0
-255 -101 0
-255 168 0
-255 -150 0
-255 -85 0
-255 26 0
255 101 -168 150 85 -26 0
251 252 253 254 255 0
-256 11 0
-256 -3 0
-256 131 0
-256 -27 0
-256 -141 0
256 -11 3 -131 27 141 0
-257 144 0
-257 -187 0
-257 -103 0
-257 140 0
-257 -45 0
257 -144 187 103 -140 45 0
-258 -76 0
-258 -92 0
-258 -1 0
-258 126 0
-258 141 0
258 76 92 1 -126 -141 0
-259 175 0
-259 177 0
-259 99 0
-259 -32 0
-259 -42 0
259 -175 -177 -99 32 42 0
-260 11 0
-260 46 0
-260 -32 0
-260 -55 0
-260 118 0
260 -11 -46 32 55 -118 0
256 257 258 259 260 0
-261 -101 0
-261 -169 0
-261 -163 0
-261 -176 0
-261 -178 0
261 101 169 163 176 178 0
-262 -54 0
-262 86 0
-262 -182 0
-262 -52 0
-262 -179 0
262 54 -86 182 52 179 0
-263 -174 0
-263 -143 0
-263 -137 0
-263 -163 0
-263 -164 0
263 174 143 137 163 164 0
-264 -136 0
-264 -168 0
-264 -187 0
-264 -64 0
-264 -125 0
264 136 168 187 64 125 0
-265 9 0
-265 -30 0
-265 -33 0
-265 52 0
-265 -91 0
265 -9 30 33 -52 91 0
261 262 263 264 265 0
-266 51 0
-266 -136 0
-266 100 0
-266 65 0
-266 80 0
266 -51 136 -100 -65 -80 0
-267 -150 0
-267 12 0
-267 -181 0
-267 -110 0
-267 63 0
267 150 -12 181 110 -63 0
-268 -184 0
-268 72 0
-268 26 0
-268 -92 0
-268 141 0
268 184 -72 -26 92 -141 0
-269 -168 0
-269 175 0
-269 -20 0
-269 68 0
-269 -107 0
269 168 -175 20 -68 107 0
-270 116 0
-270 -37 0
-270 -146 0
-270 -70 0
-270 -33 0
270 -116 37 146 70 33 0
266 267 268 269 270 0
-271 -163 0
-271 141 0
-271 -41 0
-271 -138 0
-271 -63 0
271 163 -141 41 138 63 0
-272 26 0
-272 -121 0
-272 -151 0
-272 -104 0
-272 96 0
272 -26 121 151 104 -96 0
-273 82 0
-273 -34 0
-273 -90 0
-273 -65 0
-273 -8 0
273 -82 34 90 65 8 0
-274 142 0
-274 -52 0
-274 -17 0
-274 106 0
-274 -105 0
274 -142 52 17 -106 105 0
-275 -18 0
-275 132 0
-275 39 0
-275 53 0
-275 143 0
275 18 -132 -39 -53 -143 0
271 272 273 274 275 0
-276 140 0
-276 -62 0
-276 -155 0
-276 -13 0
-276 82 0
276 -140 62 155 13 -82 0
-277 13 0
-277 85 0
-277 65 0
-277 -94 0
-277 -95 0
277 -13 -85 -65 94 95 0
-278 -138 0
-278 117 0
-278 -181 0
-278 28 0
-278 33 0
278 138 -117 181 -28 -33 0
-279 44 0
-279 145 0
-279 186 0
-279 105 0
-279 51 0
279 -44 -145 -186 -105 -51 0
-280 -168 0
-280 185 0
-280 105 0
-280 70 0
-280 157 0
280 168 -185 -105 -70 -157 0
276 277 278 279 280 0
-281 112 0
-281 130 0
-281 -8 0
-281 26 0
-281 -183 0
281 -112 -130 8 -26 183 0
-282 -188 0
-282 -3 0
-282 -152 0
-282 -146 0
-282 -4 0
282 188 3 152 146 4 0
-283 176 0
-283 10 0
-283 159 0
-283 -144 0
-283 -27 0
283 -176 -10 -159 144 27 0
-284 -57 0
-284 -100 0
-284 83 0
-284 -91 0
-284 -136 0
284 57 100 -83 91 136 0
-285 -30 0
-285 135 0
-285 -76 0
-285 -143 0
-285 -69 0
285 30 -135 76 143 69 0
281 282 283 284 285 0
-286 -60 0
-286 -152 0
-286 96 0
-286 108 0
-286 155 0
286 60 152 -96 -108 -155 0
-287 133 0
-287 50 0
-287 -81 0
-287 150 0
-287 134 0
287 -133 -50 81 -150 -134 0
-288 74 0
-288 96 0
-288 -172 0
-288 -142 0
-288 -55 0
288 -74 -96 172 142 55 0
-289 4 0
-289 -8 0
-289 48 0
-289 87 0
-289 -28 0
289 -4 8 -48 -87 28 0
-290 50 0
-290 146 0
-290 -31 0
-290 133 0
-290 -70 0
290 -50 -146 31 -133 70 0
286 287 288 289 290 0
-291 70 0
-291 20 0
-291 134 0
-291 50 0
-291 75 0
291 -70 -20 -134 -50 -75 0
-292 -102 0
-292 -57 0
-292 -140 0
-292 128 0
-292 -52 0
292 102 57 140 -128 52 0
-293 -20 0
-293 96 0
-293 -59 0
-293 -126 0
-293 56 0
293 20 -96 59 126 -56 0
-294 -43 0
-294 124 0
-294 -135 0
-294 134 0
-294 152 0
294 43 -124 135 -134 -152 0
-295 56 0
-295 118 0
-295 -30 0
-295 -70 0
-295 -117 0
295 -56 -118 30 70 117 0
291 292 293 294 295 0
-296 -36 0
-296 160 0
-296 182 0
-296 -70 0
-296 69 0
296 36 -160 -182 70 -69 0
-297 -155 0
-297 84 0
-297 -164 0
-297 117 0
-297 -158 0
297 155 -84 164 -117 158 0
-298 18 0
-298 25 0
-298 -163 0
-298 -26 0
-298 -154 0
298 -18 -25 163 26 154 0
-299 -86 0
-299 39 0
-299 -90 0
-299 -66 0
-299 155 0
299 86 -39 90 66 -155 0
-300 -107 0
-300 49 0
-300 94 0
-300 -127 0
-300 -12 0
300 107 -49 -94 127 12 0
296 297 298 299 300 0
-301 141 0
-301 18 0
-301 25 0
-301 -158 0
-301 10 0
301 -141 -18 -25 158 -10 0
-302 -60 0
-302 156 0
-302 31 0
-302 127 0
-302 104 0
302 60 -156 -31 -127 -104 0
-303 -29 0
-303 -176 0
-303 -105 0
-303 -71 0
-303 -60 0
303 29 176 105 71 60 0
-304 59 0
-304 48 0
-304 -79 0
-304 121 0
-304 11 0
304 -59 -48 79 -121 -11 0
-305 -118 0
-305 58 0
-305 -79 0
-305 -99 0
-305 177 0
305 118 -58 79 99 -177 0
301 302 303 304 305 0
-306 -24 0
-306 184 0
-306 138 0
-306 64 0
-306 -71 0
306 24 -184 -138 -64 71 0
-307 184 0
-307 48 0
-307 -41 0
-307 92 0
-307 -139 0
307 -184 -48 41 -92 139 0
-308 -119 0
-308 95 0
-308 -100 0
-308 16 0
-308 125 0
308 119 -95 100 -16 -125 0
-309 96 0
-309 -120 0
-309 -78 0
-309 145 0
-309 181 0
309 -96 120 78 -145 -181 0
-310 -21 0
-310 156 0
-310 -126 0
-310 2 0
-310 184 0
310 21 -156 126 -2 -184 0
306 307 308 309 310 0
-311 -189 0
-311 -154 0
-311 143 0
-311 -1 0
-311 150 0
311 189 154 -143 1 -150 0
-312 -93 0
-312 71 0
-312 141 0
-312 -58 0
-312 -17 0
312 93 -71 -141 58 17 0
-313 -22 0
-313 -11 0
-313 -73 0
-313 50 0
-313 167 0
313 22 11 73 -50 -167 0
-314 135 0
-314 42 0
-314 151 0
-314 150 0
-314 -82 0
314 -135 -42 -151 -150 82 0
-315 -29 0
-315 -168 0
-315 -9 0
-315 -71 0
-315 50 0
315 29 168 9 71 -50 0
311 312 313 314 315 0
-316 -47 0
-316 -5 0
-316 -186 0
-316 81 0
-316 106 0
316 47 5 186 -81 -106 0
-317 -31 0
-317 -46 0
-317 97 0
-317 72 0
-317 168 0
317 31 46 -97 -72 -168 0
-318 -88 0
-318 -19 0
-318 158 0
-318 -2 0
-318 -141 0
318 88 19 -158 2 141 0
-319 -71 0
-319 -20 0
-319 149 0
-319 -48 0
-319 -89 0
319 71 20 -149 48 89 0
-320 111 0
-320 -90 0
-320 148 0
-320 30 0
-320 -167 0
320 -111 90 -148 -30 167 0
316 317 318 319 320 0
-321 -33 0
-321 -58 0
-321 -62 0
-321 -88 0
-321 -14 0
321 33 58 62 88 14 0
-322 128 0
-322 92 0
-322 -177 0
-322 -149 0
-322 33 0
322 -128 -92 177 149 -33 0
-323 -98 0
-323 182 0
-323 -9 0
-323 -159 0
-323 -154 0
323 98 -182 9 159 154 0
-324 -54 0
-324 30 0
-324 24 0
-324 76 0
-324 -60 0
324 54 -30 -24 -76 60 0
-325 -46 0
-325 -99 0
-325 121 0
-325 163 0
-325 -150 0
325 46 99 -121 -163 150 0
321 322 323 324 325 0
-326 183 0
-326 -67 0
-326 82 0
-326 37 0
-326 -79 0
326 -183 67 -82 -37 79 0
-327 173 0
-327 152 0
-327 123 0
-327 -79 0
-327 -94 0
327 -173 -152 -123 79 94 0
-328 44 0
-328 -174 0
-328 -111 0
-328 -134 0
-328 -136 0
328 -44 174 111 134 136 0
-329 70 0
-329 166 0
-329 129 0
-329 -150 0
-329 -21 0
329 -70 -166 -129 150 21 0
-330 183 0
-330 -8 0
-330 184 0
-330 168 0
-330 -51 0
330 -183 8 -184 -168 51 0
326 327 328 329 330 0
-331 141 0
-331 -177 0
-331 17 0
-331 8 0
-331 65 0
331 -141 177 -17 -8 -65 0
-332 116 0
-332 140 0
-332 120 0
-332 -56 0
-332 -128 0
332 -116 -140 -120 56 128 0
-333 -48 0
-333 -67 0
-333 -8 0
-333 36 0
-333 25 0
333 48 67 8 -36 -25 0
-334 55 0
-334 24 0
-334 -13 0
-334 -107 0
-334 -96 0
334 -55 -24 13 107 96 0
-335 134 0
-335 115 0
-335 164 0
-335 -4 0
-335 -18 0
335 -134 -115 -164 4 18 0
331 332 333 334 335 0
-336 75 0
-336 64 0
-336 59 0
-336 -6 0
-336 63 0
336 -75 -64 -59 6 -63 0
-337 -120 0
-337 -69 0
-337 113 0
-337 119 0
-337 -68 0
337 120 69 -113 -119 68 0
-338 -95 0
-338 107 0
-338 -112 0
-338 76 0
-338 142 0
338 95 -107 112 -76 -142 0
-339 132 0
-339 -122 0
-339 -162 0
-339 57 0
-339 -39 0
339 -132 122 162 -57 39 0
-340 -5 0
-340 -76 0
-340 29 0
-340 -20 0
-340 -135 0
340 5 76 -29 20 135 0
336 337 338 339 340 0
-341 35 0
-341 159 0
-341 122 0
-341 -173 0
-341 -61 0
341 -35 -159 -122 173 61 0
-342 30 0
-342 -189 0
-342 -46 0
-342 -85 0
-342 -89 0
342 -30 189 46 85 89 0
-343 -17 0
-343 171 0
-343 -85 0
-343 -149 0
-343 189 0
343 17 -171 85 149 -189 0
-344 -140 0
-344 133 0
-344 78 0
-344 -111 0
-344 -27 0
344 140 -133 -78 111 27 0
-345 -74 0
-345 -115 0
-345 174 0
-345 -155 0
-345 176 0
345 74 115 -174 155 -176 0
341 342 343 344 345 0
-346 -109 0
-346 -48 0
-346 -12 0
-346 190 0
-346 168 0
346 109 48 12 -190 -168 0
-347 168 0
-347 -172 0
-347 93 0
-347 78 0
-347 19 0
347 -168 172 -93 -78 -19 0
-348 116 0
-348 -127 0
-348 152 0
-348 190 0
-348 -27 0
348 -116 127 -152 -190 27 0
-349 -1 0
-349 -41 0
-349 -116 0
-349 -74 0
-349 -13 0
349 1 41 116 74 13 0
-350 -132 0
-350 -21 0
-350 150 0
-350 -171 0
-350 102 0
350 132 21 -150 171 -102 0
346 347 348 349 350 0
-351 156 0
-351 117 0
-351 81 0
-351 20 0
-351 -109 0
351 -156 -117 -81 -20 109 0
-352 -175 0
-352 -3 0
-352 174 0
-352 -141 0
-352 171 0
352 175 3 -174 141 -171 0
-353 -82 0
-353 120 0
-353 -167 0
-353 -102 0
-353 -145 0
353 82 -120 167 102 145 0
-354 -153 0
-354 178 0
-354 -111 0
-354 136 0
-354 36 0
354 153 -178 111 -136 -36 0
-355 106 0
-355 -178 0
-355 26 0
-355 -155 0
-355 100 0
355 -106 178 -26 155 -100 0
351 352 353 354 355 0
-356 11 0
-356 14 0
-356 -127 0
-356 86 0
-356 96 0
356 -11 -14 127 -86 -96 0
-357 -57 0
-357 21 0
-357 128 0
-357 40 0
-357 -171 0
357 57 -21 -128 -40 171 0
-358 -52 0
-358 130 0
-358 63 0
-358 -183 0
-358 -138 0
358 52 -130 -63 183 138 0
-359 -110 0
-359 -8 0
-359 109 0
-359 120 0
-359 -185 0
359 110 8 -109 -120 185 0
-360 108 0
-360 -117 0
-360 38 0
-360 79 0
-360 -183 0
360 -108 117 -38 -79 183 0
356 357 358 359 360 0
-361 -91 0
-361 70 0
-361 -60 0
-361 164 0
-361 184 0
361 91 -70 60 -164 -184 0
-362 -179 0
-362 11 0
-362 138 0
-362 -128 0
-362 143 0
362 179 -11 -138 128 -143 0
-363 -161 0
-363 82 0
-363 176 0
-363 -75 0
-363 -109 0
363 161 -82 -176 75 109 0
-364 102 0
-364 -80 0
-364 29 0
-364 -99 0
-364 1 0
364 -102 80 -29 99 -1 0
-365 -149 0
-365 -97 0
-365 -135 0
-365 4 0
-365 55 0
365 149 97 135 -4 -55 0
361 362 363 364 365 0
-366 -125 0
-366 179 0
-366 -87 0
-366 -113 0
-366 -16 0
366 125 -179 87 113 16 0
-367 101 0
-367 123 0
-367 107 0
-367 103 0
-367 -75 0
367 -101 -123 -107 -103 75 0
-368 -37 0
-368 -91 0
-368 182 0
-368 -83 0
-368 -81 0
368 37 91 -182 83 81 0
-369 -118 0
-369 -137 0
-369 -170 0
-369 -28 0
-369 -187 0
369 118 137 170 28 187 0
-370 -160 0
-370 -61 0
-370 -165 0
-370 190 0
-370 -106 0
370 160 61 165 -190 106 0
366 367 368 369 370 0
-371 153 0
-371 -73 0
-371 32 0
-371 -173 0
-371 121 0
371 -153 73 -32 173 -121 0
-372 -155 0
-372 -178 0
-372 -31 0
-372 -15 0
-372 -186 0
372 155 178 31 15 186 0
-373 -32 0
-373 -86 0
-373 -58 0
-373 108 0
-373 -155 0
373 32 86 58 -108 155 0
-374 72 0
-374 -172 0
-374 65 0
-374 58 0
-374 98 0
374 -72 172 -65 -58 -98 0
-375 71 0
-375 116 0
-375 -18 0
-375 -77 0
-375 -64 0
375 -71 -116 18 77 64 0
371 372 373 374 375 0
-376 67 0
-376 176 0
-376 174 0
-376 -143 0
-376 128 0
376 -67 -176 -174 143 -128 0
-377 -185 0
-377 44 0
-377 71 0
-377 -155 0
-377 -97 0
377 185 -44 -71 155 97 0
-378 -156 0
-378 -27 0
-378 -58 0
-378 162 0
-378 -149 0
378 156 27 58 -162 149 0
-379 -42 0
-379 -65 0
-379 117 0
-379 27 0
-379 -85 0
379 42 65 -117 -27 85 0
-380 172 0
-380 -110 0
-380 -1 0
-380 -140 0
-380 -97 0
380 -172 110 1 140 97 0
376 377 378 379 380 0
-381 -129 0
-381 -188 0
-381 -174 0
-381 -58 0
-381 -99 0
381 129 188 174 58 99 0
-382 -69 0
-382 -21 0
-382 -12 0
-382 133 0
-382 -189 0
382 69 21 12 -133 189 0
-383 6 0
-383 50 0
-383 -1 0
-383 -14 0
-383 121 0
383 -6 -50 1 14 -121 0
-384 13 0
-384 -117 0
-384 -83 0
-384 -38 0
-384 63 0
384 -13 117 83 38 -63 0
-385 125 0
-385 63 0
-385 90 0
-385 162 0
-385 92 0
385 -125 -63 -90 -162 -92 0
381 382 383 384 385 0
-386 -10 0
-386 62 0
-386 103 0
-386 1 0
-386 151 0
386 10 -62 -103 -1 -151 0
-387 -91 0
-387 -129 0
-387 34 0
-387 67 0
-387 -127 0
387 91 129 -34 -67 127 0
-388 -52 0
-388 -48 0
-388 -116 0
-388 105 0
-388 -164 0
388 52 48 116 -105 164 0
-389 133 0
-389 -117 0
-389 150 0
-389 20 0
-389 -21 0
389 -133 117 -150 -20 21 0
-390 85 0
-390 -168 0
-390 -99 0
-390 -175 0
-390 -76 0
390 -85 168 99 175 76 0
386 387 388 389 390 0
-391 -187 0
-391 94 0
-391 -99 0
-391 -23 0
-391 182 0
391 187 -94 99 23 -182 0
-392 87 0
-392 157 0
-392 -66 0
-392 32 0
-392 -145 0
392 -87 -157 66 -32 145 0
-393 106 0
-393 141 0
-393 -37 0
-393 97 0
-393 76 0
393 -106 -141 37 -97 -76 0
-394 179 0
-394 138 0
-394 -149 0
-394 77 0
-394 -7 0
394 -179 -138 149 -77 7 0
-395 -98 0
-395 -13 0
-395 150 0
-395 -141 0
-395 -28 0
395 98 13 -150 141 28 0
391 392 393 394 395 0
-396 -11 0
-396 -58 0
-396 -13 0
-396 92 0
-396 -51 0
396 11 58 13 -92 51 0
-397 82 0
-397 -93 0
-397 -88 0
-397 -112 0
-397 73 0
397 -82 93 88 112 -73 0
-398 -188 0
-398 -94 0
-398 116 0
-398 147 0
-398 -110 0
398 188 94 -116 -147 110 0
-399 -114 0
-399 -185 0
-399 34 0
-399 21 0
-399 -123 0
399 114 185 -34 -21 123 0
-400 134 0
-400 171 0
-400 -179 0
-400 164 0
-400 172 0
400 -134 -171 179 -164 -172 0
396 397 398 399 400 0
-401 -31 0
-401 30 0
-401 126 0
-401 39 0
-401 100 0
401 31 -30 -126 -39 -100 0
-402 71 0
-402 89 0
-402 -64 0
-402 117 0
-402 -39 0
402 -71 -89 64 -117 39 0
-403 -68 0
-403 -145 0
-403 158 0
-403 64 0
-403 -168 0
403 68 145 -158 -64 168 0
-404 -49 0
-404 180 0
-404 190 0
-404 144 0
-404 -59 0
404 49 -180 -190 -144 59 0
-405 52 0
-405 176 0
-405 101 0
-405 165 0
-405 95 0
405 -52 -176 -101 -165 -95 0
401 402 403 404 405 0
-406 -190 0
-406 99 0
-406 68 0
-406 146 0
-406 2 0
406 190 -99 -68 -146 -2 0
-407 -128 0
-407 -168 0
-407 5 0
-407 60 0
-407 37 0
407 128 168 -5 -60 -37 0
-408 -17 0
-408 -98 0
-408 -129 0
-408 -46 0
-408 -146 0
408 17 98 129 46 146 0
-409 161 0
-409 147 0
-409 -45 0
-409 -85 0
-409 129 0
409 -161 -147 45 85 -129 0
-410 27 0
-410 -156 0
-410 -1 0
-410 170 0
-410 72 0
410 -27 156 1 -170 -72 0
406 407 408 409 410 0
-411 49 0
-411 -129 0
-411 93 0
-411 -168 0
-411 53 0
411 -49 129 -93 168 -53 0
-412 112 0
-412 30 0
-412 -185 0
-412 -100 0
-412 105 0
412 -112 -30 185 100 -105 0
-413 -2 0
-413 150 0
-413 -154 0
-413 -165 0
-413 60 0
413 2 -150 154 165 -60 0
-414 -23 0
-414 -164 0
-414 -52 0
-414 -50 0
-414 -177 0
414 23 164 52 50 177 0
-415 158 0
-415 -31 0
-415 -58 0
-415 139 0
-415 -2 0
415 -158 31 58 -139 2 0
411 412 413 414 415 0
-416 -105 0
-416 -50 0
-416 -27 0
-416 -59 0
-416 -183 0
416 105 50 27 59 183 0
-417 179 0
-417 166 0
-417 14 0
-417 159 0
-417 137 0
417 -179 -166 -14 -159 -137 0
-418 -177 0
-418 179 0
-418 165 0
-418 122 0
-418 -75 0
418 177 -179 -165 -122 75 0
-419 -70 0
-419 99 0
-419 33 0
-419 54 0
-419 -134 0
419 70 -99 -33 -54 134 0
-420 -57 0
-420 84 0
-420 -97 0
-420 59 0
-420 -123 0
420 57 -84 97 -59 123 0
416 417 418 419 420 0
-421 -80 0
-421 116 0
-421 94 0
-421 104 0
-421 131 0
421 80 -116 -94 -104 -131 0
-422 -162 0
-422 124 0
-422 60 0
-422 68 0
-422 -123 0
422 162 -124 -60 -68 123 0
-423 179 0
-423 -158 0
-423 -100 0
-423 77 0
-423 -176 0
423 -179 158 100 -77 176 0
-424 35 0
-424 -76 0
-424 -146 0
-424 190 0
-424 22 0
424 -35 76 146 -190 -22 0
-425 -183 0
-425 158 0
-425 -82 0
-425 -25 0
-425 36 0
425 183 -158 82 25 -36 0
421 422 423 424 425 0
-426 180 0
-426 -20 0
-426 47 0
-426 -24 0
-426 128 0
426 -180 20 -47 24 -128 0
-427 -32 0
-427 114 0
-427 -14 0
-427 -128 0
-427 -61 0
427 32 -114 14 128 61 0
-428 -64 0
-428 153 0
-428 -115 0
-428 55 0
-428 83 0
428 64 -153 115 -55 -83 0
-429 4 0
-429 -81 0
-429 163 0
-429 127 0
-429 71 0
429 -4 81 -163 -127 -71 0
-430 22 0
-430 -51 0
-430 20 0
-430 55 0
-430 189 0
430 -22 51 -20 -55 -189 0
426 427 428 429 430 0
